(set-logic QF_S)
(declare-fun var0 () String)
(declare-fun var1 () String)
(declare-fun var2 () String)
(declare-fun var3 () String)
(declare-fun var4 () String)
(declare-fun var5 () String)
(declare-fun var6 () String)
(declare-fun var7 () String)
(declare-fun var8 () String)
(declare-fun var9 () String)
(declare-fun var10 () String)
(declare-fun var11 () String)
(declare-fun var12 () String)
(declare-fun var13 () String)
(declare-fun var14 () String)
(declare-fun var15 () String)
(declare-fun var16 () String)
(declare-fun var17 () String)
(declare-fun var18 () String)
(declare-fun var19 () String)
(declare-fun var20 () String)
(declare-fun var21 () String)
(declare-fun var22 () String)
(declare-fun var23 () String)
(declare-fun var24 () String)
(declare-fun var25 () String)
(declare-fun var26 () String)
(declare-fun var27 () String)
(declare-fun var28 () String)
(declare-fun var29 () String)
(declare-fun var30 () String)
(declare-fun var31 () String)
(declare-fun var32 () String)
(declare-fun var33 () String)
(declare-fun var34 () String)
(declare-fun var35 () String)
(declare-fun var36 () String)
(declare-fun var37 () String)
(declare-fun var38 () String)
(declare-fun var39 () String)
(declare-fun var40 () String)
(declare-fun var41 () String)
(declare-fun var42 () String)
(declare-fun var43 () String)
(declare-fun var44 () String)
(declare-fun var45 () String)
(declare-fun var46 () String)
(declare-fun var47 () String)
(declare-fun var48 () String)
(declare-fun var49 () String)
(declare-fun var50 () String)
(declare-fun var51 () String)
(declare-fun var52 () String)
(declare-fun var53 () String)
(declare-fun var54 () String)
(declare-fun var55 () String)
(declare-fun var56 () String)
(declare-fun var57 () String)
(declare-fun var58 () String)
(declare-fun var59 () String)
(declare-fun var60 () String)
(assert (= var0 (str.++ var1 var2)))
(assert (= var2 (str.++ var3 var4)))
(assert (= var4 (str.++ var5 var6)))
(assert (= var6 (str.++ var7 var8)))
(assert (= var8 (str.++ var9 var10)))
(assert (= var10 (str.++ var11 var12)))
(assert (= var12 (str.++ var13 var14)))
(assert (= var14 (str.++ var15 var16)))
(assert (= var16 (str.++ var17 var18)))
(assert (= var18 (str.++ var19 var20)))
(assert (= var20 (str.++ var21 var22)))
(assert (= var22 (str.++ var23 var24)))
(assert (= var24 (str.++ var25 var26)))
(assert (= var26 (str.++ var27 var28)))
(assert (= var28 (str.++ var29 var30)))
(assert (= var30 (str.++ var31 var32)))
(assert (= var32 (str.++ var33 var34)))
(assert (= var34 (str.++ var35 var36)))
(assert (= var36 (str.++ var37 var38)))
(assert (= var38 (str.++ var39 var40)))
(assert (= var40 (str.++ var41 var42)))
(assert (= var42 (str.++ var43 var44)))
(assert (= var44 (str.++ var45 var46)))
(assert (= var46 (str.++ var47 var48)))
(assert (= var48 (str.++ var49 var50)))
(assert (= var50 (str.++ var51 var52)))
(assert (= var52 (str.++ var53 var54)))
(assert (= var54 (str.++ var55 var56)))
(assert (= var56 (str.++ var57 var58)))
(assert (= var58 (str.++ var59 var60)))
(assert (= var0 "solution"))
(assert (= "0" (str.at var34 41)))
(assert (= "m" (str.at var0 120)))
(assert (= "}" (str.at var18 460)))
(assert (= "S" (str.at var26 691)))
(assert (= "T" (str.at var46 512)))
(assert (= "+" (str.at var26 183)))
(assert (= "Q" (str.at var6 621)))
(assert (= "d" (str.at var16 917)))
(assert (= ";" (str.at var59 627)))
(assert (= "8" (str.at var17 857)))
(assert (= "z" (str.at var49 773)))
(assert (= "Z" (str.at var54 522)))
(assert (= "P" (str.at var12 859)))
(assert (= "*" (str.at var32 841)))
(assert (= "[" (str.at var41 718)))
(assert (= "9" (str.at var59 294)))
(assert (= "N" (str.at var2 627)))
(assert (= "O" (str.at var43 360)))
(assert (= "@" (str.at var52 921)))
(assert (= "v" (str.at var55 902)))
(assert (= "$" (str.at var30 712)))
(assert (= "x" (str.at var47 480)))
(assert (= "b" (str.at var57 333)))
(assert (= "&" (str.at var37 610)))
(assert (= "J" (str.at var13 151)))
(assert (= "X" (str.at var19 656)))
(assert (= "Y" (str.at var4 474)))
(assert (= "J" (str.at var13 853)))
(assert (= "{" (str.at var55 729)))
(assert (= "I" (str.at var9 113)))
(assert (= "v" (str.at var32 847)))
(assert (= "&" (str.at var46 594)))
(assert (= "0" (str.at var24 832)))
(assert (= "W" (str.at var33 855)))
(assert (= "Q" (str.at var34 213)))
(assert (= """" (str.at var2 315)))
(assert (= "+" (str.at var22 673)))
(assert (= "z" (str.at var1 766)))
(assert (= "," (str.at var19 782)))
(assert (= "5" (str.at var33 214)))
(assert (= "s" (str.at var8 138)))
(assert (= "2" (str.at var56 354)))
(assert (= "T" (str.at var32 744)))
(assert (= "&" (str.at var47 960)))
(assert (= "g" (str.at var45 542)))
(assert (= "v" (str.at var33 771)))
(assert (= "c" (str.at var40 478)))
(assert (= "@" (str.at var23 105)))
(assert (= "J" (str.at var50 103)))
(assert (= "N" (str.at var32 76)))
(assert (= "a" (str.at var45 534)))
(assert (= "%" (str.at var16 965)))
(assert (= "D" (str.at var11 30)))
(assert (= "U" (str.at var34 870)))
(assert (= "]" (str.at var14 832)))
(assert (= "C" (str.at var47 817)))
(assert (= "J" (str.at var12 985)))
(assert (= "9" (str.at var36 777)))
(assert (= "^" (str.at var29 596)))
(assert (= "p" (str.at var47 452)))
(assert (= "a" (str.at var58 813)))
(assert (= "=" (str.at var43 297)))
(assert (= "4" (str.at var20 322)))
(assert (= "j" (str.at var51 54)))
(assert (= "e" (str.at var12 392)))
(assert (= "3" (str.at var38 371)))
(assert (= "h" (str.at var47 784)))
(assert (= "4" (str.at var8 105)))
(assert (= "h" (str.at var51 642)))
(assert (= "j" (str.at var53 902)))
(assert (= "~" (str.at var8 857)))
(assert (= "u" (str.at var10 166)))
(assert (= "G" (str.at var58 951)))
(assert (= "u" (str.at var38 178)))
(assert (= "v" (str.at var53 489)))
(assert (= "r" (str.at var19 44)))
(assert (= "R" (str.at var32 192)))
(assert (= "l" (str.at var21 724)))
(assert (= "k" (str.at var55 950)))
(assert (= "`" (str.at var18 606)))
(assert (= "W" (str.at var56 74)))
(assert (= "a" (str.at var59 183)))
(assert (= "a" (str.at var51 474)))
(assert (= "Z" (str.at var12 686)))
(assert (= "w" (str.at var17 766)))
(assert (= "Q" (str.at var34 152)))
(assert (= "g" (str.at var9 337)))
(assert (= "&" (str.at var15 942)))
(assert (= "Q" (str.at var37 192)))
(assert (= "2" (str.at var29 95)))
(assert (= "P" (str.at var53 372)))
(assert (= "b" (str.at var22 49)))
(assert (= "C" (str.at var59 635)))
(assert (= "F" (str.at var37 26)))
(assert (= ">" (str.at var17 723)))
(assert (= "+" (str.at var27 315)))
(assert (= "n" (str.at var11 225)))
(assert (= "E" (str.at var35 447)))
(assert (= "L" (str.at var47 475)))
(assert (= "-" (str.at var22 145)))
(assert (= "j" (str.at var23 784)))
(assert (= "U" (str.at var53 637)))
(assert (= "u" (str.at var32 570)))
(assert (= "3" (str.at var3 663)))
(assert (= "+" (str.at var18 57)))
(assert (= "j" (str.at var9 648)))
(assert (= "M" (str.at var1 762)))
(assert (= "\\" (str.at var48 792)))
(assert (= "v" (str.at var33 144)))
(assert (= "'" (str.at var14 13)))
(assert (= "I" (str.at var48 13)))
(assert (= "n" (str.at var31 340)))
(assert (= "s" (str.at var10 208)))
(assert (= "P" (str.at var12 539)))
(assert (= "J" (str.at var50 783)))
(assert (= "8" (str.at var49 789)))
(assert (= "b" (str.at var21 119)))
(assert (= "u" (str.at var13 222)))
(assert (= "L" (str.at var52 844)))
(assert (= ":" (str.at var22 360)))
(assert (= "t" (str.at var60 759)))
(assert (= "[" (str.at var53 681)))
(assert (= "k" (str.at var43 797)))
(assert (= "4" (str.at var32 692)))
(assert (= "K" (str.at var49 207)))
(assert (= "h" (str.at var59 448)))
(assert (= "r" (str.at var48 469)))
(assert (= "\\" (str.at var27 212)))
(assert (= "%" (str.at var52 31)))
(assert (= "U" (str.at var0 195)))
(assert (= "w" (str.at var14 15)))
(assert (= "p" (str.at var1 952)))
(assert (= "I" (str.at var41 985)))
(assert (= "`" (str.at var34 285)))
(assert (= "H" (str.at var27 274)))
(assert (= ">" (str.at var55 36)))
(assert (= "b" (str.at var29 459)))
(assert (= "<" (str.at var31 331)))
(assert (= "|" (str.at var13 707)))
(assert (= "L" (str.at var13 669)))
(assert (= "%" (str.at var22 815)))
(assert (= "1" (str.at var38 24)))
(assert (= "\\" (str.at var6 138)))
(assert (= "6" (str.at var27 762)))
(assert (= "W" (str.at var27 673)))
(assert (= "R" (str.at var40 488)))
(assert (= "%" (str.at var39 280)))
(assert (= "r" (str.at var13 190)))
(assert (= "+" (str.at var53 39)))
(assert (= "M" (str.at var35 595)))
(assert (= "T" (str.at var42 549)))
(assert (= "u" (str.at var59 842)))
(assert (= "=" (str.at var30 771)))
(assert (= "A" (str.at var38 922)))
(assert (= "V" (str.at var38 665)))
(assert (= "M" (str.at var4 295)))
(assert (= "S" (str.at var18 401)))
(assert (= "n" (str.at var57 762)))
(assert (= "F" (str.at var1 398)))
(assert (= "w" (str.at var6 773)))
(assert (= "F" (str.at var5 721)))
(assert (= "|" (str.at var11 683)))
(assert (= "g" (str.at var3 802)))
(assert (= "c" (str.at var35 801)))
(assert (= "%" (str.at var50 297)))
(assert (= ";" (str.at var51 324)))
(assert (= "q" (str.at var18 648)))
(assert (= "C" (str.at var47 705)))
(assert (= "9" (str.at var5 841)))
(assert (= "%" (str.at var7 266)))
(assert (= "1" (str.at var21 399)))
(assert (= "|" (str.at var17 652)))
(assert (= "_" (str.at var14 847)))
(assert (= "9" (str.at var1 603)))
(assert (= "[" (str.at var11 267)))
(assert (= "'" (str.at var34 531)))
(assert (= "u" (str.at var34 22)))
(assert (= "z" (str.at var54 902)))
(assert (= "n" (str.at var41 405)))
(assert (= "b" (str.at var39 153)))
(assert (= ";" (str.at var34 468)))
(assert (= "6" (str.at var59 714)))
(assert (= "l" (str.at var54 931)))
(assert (= "x" (str.at var1 458)))
(assert (= "W" (str.at var16 433)))
(assert (= "[" (str.at var2 239)))
(assert (= "x" (str.at var4 0)))
(assert (= "m" (str.at var31 142)))
(assert (= "8" (str.at var28 533)))
(assert (= "[" (str.at var38 525)))
(assert (= "^" (str.at var37 420)))
(assert (= "A" (str.at var5 995)))
(assert (= """" (str.at var58 889)))
(assert (= "W" (str.at var41 266)))
(assert (= "y" (str.at var53 311)))
(assert (= "M" (str.at var49 867)))
(assert (= "f" (str.at var24 59)))
(assert (= "]" (str.at var7 249)))
(assert (= "I" (str.at var31 56)))
(assert (= "L" (str.at var6 14)))
(assert (= "q" (str.at var30 28)))
(check-sat)
(get-model)